(set-logic HORN)
(declare-fun state (Int Int Int (Array Int Int) Int (Array Int Int) Int Bool Bool Int Int Int) Bool)
(assert (forall ((|@nd_0_2| Int) (|main@%a1.i_0_1| Int) (|main@%i.0.i_0_1| Int) (|main@%shadow.mem.0_0_1| (Array Int Int)) (|main@%a2.i_0_1| Int) (|main@%shadow.mem1.0_0_1| (Array Int Int)) (|@nd_int_0_2| Int) (|.loc.10| Bool) (|.loc.11| Bool) (|main@%_16_0| Int) (|main@%_18_0| Int) (|main@%_14_0| Int) (|.loc.19| Bool) (|.loc.20| Bool) (|.y.18| Int) (|.y.13| Int) (|.y.16| Int) (|.y.14| Int) (|.y.12| Int) (|.y.15| (Array Int Int)) (|.y.17| (Array Int Int)) (|.xtv.1| Int) (|.xtv.2| Int) (|.xtv.3| Int)) (=> (and (not .loc.11) (not .loc.10)) (state |@nd_0_2| |main@%a1.i_0_1| |main@%i.0.i_0_1| |main@%shadow.mem.0_0_1| |main@%a2.i_0_1| |main@%shadow.mem1.0_0_1| |@nd_int_0_2| |.loc.10| |.loc.11| |main@%_16_0| |main@%_18_0| |main@%_14_0|))))
(assert (forall ((|@nd_0_2| Int) (|main@%a1.i_0_1| Int) (|main@%i.0.i_0_1| Int) (|main@%shadow.mem.0_0_1| (Array Int Int)) (|main@%a2.i_0_1| Int) (|main@%shadow.mem1.0_0_1| (Array Int Int)) (|@nd_int_0_2| Int) (|.loc.10| Bool) (|.loc.11| Bool) (|main@%_16_0| Int) (|main@%_18_0| Int) (|main@%_14_0| Int) (|.loc.19| Bool) (|.loc.20| Bool) (|.y.18| Int) (|.y.13| Int) (|.y.16| Int) (|.y.14| Int) (|.y.12| Int) (|.y.15| (Array Int Int)) (|.y.17| (Array Int Int)) (|.xtv.1| Int) (|.xtv.2| Int) (|.xtv.3| Int)) (=> (and (state |@nd_0_2| |main@%a1.i_0_1| |main@%i.0.i_0_1| |main@%shadow.mem.0_0_1| |main@%a2.i_0_1| |main@%shadow.mem1.0_0_1| |@nd_int_0_2| |.loc.10| |.loc.11| |main@%_16_0| |main@%_18_0| |main@%_14_0|) (let ((.def_34 (<= main@%a2.i_0_1 0))) (let ((.def_50 (<= 0 main@%_14_0))) (let ((.def_56 (<= 100 main@%i.0.i_0_1))) (let ((.def_62 (<= main@%a1.i_0_1 0))) (let ((.def_63 (or (not (<= main@%_16_0 0)) .def_62))) (let ((.def_65 (not .def_62))) (let ((.def_69 (not .def_34))) (let ((.def_86 (not .loc.20))) (let ((.def_93 (= @nd_0_2 .y.12))) (and (not .loc.11) (or (or (and (not .loc.19) (and (and .loc.10 (and (not (= (select main@%shadow.mem.0_0_1 main@%_16_0) (select main@%shadow.mem1.0_0_1 main@%_18_0))) (and (and (or (not (<= main@%_18_0 0)) .def_34) (and (= (+ main@%a2.i_0_1 (+ (* (- 1) main@%_18_0) main@%_14_0)) 0) (and (and (and (= (+ main@%a1.i_0_1 (+ (* (- 1) main@%_16_0) main@%_14_0)) 0) (and (or (not .def_50) (not (<= 100 main@%_14_0))) (and .def_50 .def_56))) .def_63) .def_65))) .def_69))) .loc.20)) (and (= main@%a1.i_0_1 .y.18) (and (and (not (<= .y.13 0)) (and (not (<= .y.16 0)) (and (= .y.14 0) (and (not .loc.10) (and .loc.19 .def_86))))) .def_93))) (and (= @nd_int_0_2 .y.18) (and (= main@%a2.i_0_1 .y.16) (and (= main@%a1.i_0_1 .y.13) (and (or .def_34 (not (<= main@%_14_0 0))) (and (= (+ main@%i.0.i_0_1 (+ main@%a2.i_0_1 (* (- 1) main@%_14_0))) 0) (and (= (+ main@%a1.i_0_1 (+ main@%i.0.i_0_1 (* (- 1) main@%_16_0))) 0) (and (= (store main@%shadow.mem.0_0_1 main@%_16_0 main@%_18_0) .y.15) (and (= (store main@%shadow.mem1.0_0_1 main@%_14_0 main@%_18_0) .y.17) (and (= (+ main@%i.0.i_0_1 (* (- 1) .y.14)) (- 1)) (and .def_93 (and .def_86 (and .loc.19 (and .loc.10 (and .def_69 (and .def_65 (and .def_63 (not .def_56))))))))))))))))))))))))))))) (state |.y.12| |.y.13| |.y.14| |.y.15| |.y.16| |.y.17| |.y.18| |.loc.19| |.loc.20| |.xtv.1| |.xtv.2| |.xtv.3|))))
(assert (forall ((|@nd_0_2| Int) (|main@%a1.i_0_1| Int) (|main@%i.0.i_0_1| Int) (|main@%shadow.mem.0_0_1| (Array Int Int)) (|main@%a2.i_0_1| Int) (|main@%shadow.mem1.0_0_1| (Array Int Int)) (|@nd_int_0_2| Int) (|.loc.10| Bool) (|.loc.11| Bool) (|main@%_16_0| Int) (|main@%_18_0| Int) (|main@%_14_0| Int) (|.loc.19| Bool) (|.loc.20| Bool) (|.y.18| Int) (|.y.13| Int) (|.y.16| Int) (|.y.14| Int) (|.y.12| Int) (|.y.15| (Array Int Int)) (|.y.17| (Array Int Int)) (|.xtv.1| Int) (|.xtv.2| Int) (|.xtv.3| Int)) (=> (state |@nd_0_2| |main@%a1.i_0_1| |main@%i.0.i_0_1| |main@%shadow.mem.0_0_1| |main@%a2.i_0_1| |main@%shadow.mem1.0_0_1| |@nd_int_0_2| |.loc.10| |.loc.11| |main@%_16_0| |main@%_18_0| |main@%_14_0|) (not (and .loc.11 (not .loc.10))))))
(check-sat)
